67
200
160	1
159	2
158	1
156	2
152	1
151	1
150	1
148	1
146	1
144	4
142	1
141	1
134	1
133	1
132	2
131	1
130	1
128	2
126	2
124	1
122	1
120	1
119	1
115	1
114	1
113	1
112	3
110	1
108	1
106	1
104	2
103	2
101	1
100	1
99	4
98	2
97	2
95	1
94	1
91	1
90	2
88	2
86	2
84	1
81	3
79	2
77	2
76	1
71	1
70	1
68	1
66	3
64	1
62	1
61	1
60	1
59	2
58	2
57	1
56	1
55	3
51	2
50	2
49	1
48	1
43	1
40	2
